words_hard_train/2790.qaiger
aag 86 16 0 1 70
2
4
8
12
20
24
26
30
44
60
78
86
120
128
148
150
172
6 3 5
10 6 9
14 11 12
16 10 13
18 15 17
22 18 20
28 24 27
32 31 3
34 28 33
36 30 2
38 35 37
40 2 4
42 41 7
46 43 45
48 42 44
50 47 49
52 39 50
54 53 49
56 7 8
58 57 11
62 59 61
64 58 60
66 63 65
68 55 66
70 69 65
72 23 70
74 19 21
76 73 75
80 17 78
82 16 79
84 81 83
88 85 87
90 84 86
92 89 91
94 77 93
96 92 75
98 95 97
100 25 26
102 33 37
104 101 103
106 104 53
108 54 67
110 109 69
112 106 111
114 37 51
116 115 29
118 112 116
122 83 120
124 82 121
126 123 125
130 127 128
132 126 129
134 131 133
136 135 91
138 134 90
140 137 139
142 118 141
144 123 128
146 145 125
152 148 151
154 149 150
156 153 155
158 146 157
160 147 156
162 159 161
164 75 23
166 165 71
168 163 167
170 142 168
172 98 170
i0 2 y1[1]
i1 2 y1[2]
i2 2 y1[3]
i3 2 y1[4]
i4 1 x1[4]
i5 1 x1[0]
i6 2 y1[0]
i7 1 x1[1]
i8 1 x1[2]
i9 1 x1[3]
i10 2 y1[5]
i11 1 x1[5]
i12 2 y1[6]
i13 1 x1[6]
i14 1 x1[7]
i15 2 y1[7]
o0 bool[0]
c
simplified
  ==
    add
      1 x1
      subtract
        1
        2 y1
    invert
      -102
