words_hard_train/2790.qaiger.qdimacs
p cnf 86 211
a 64 10 43 12 74 15 22 30 0
e 1 2 3 4 5 6 7 8 9 11 13 14 16 17 18 19 20 21 23 24 25 26 27 28 29 31 32 33 34 35 36 37 38 39 40 41 42 44 45 46 47 48 49 50 51 52 53 54 55 56 57 58 59 60 61 62 63 65 66 67 68 69 70 71 72 73 75 76 77 78 79 80 81 82 83 84 85 86 0
1 2 3 0
-1 -3 0
-2 -3 0
-3 4 5 0
3 -5 0
-4 -5 0
5 -6 7 0
-5 -7 0
6 -7 0
-5 6 8 0
5 -8 0
-6 -8 0
7 8 9 0
-7 -9 0
-8 -9 0
-9 -10 11 0
9 -11 0
10 -11 0
-12 13 14 0
12 -14 0
-13 -14 0
15 1 16 0
-15 -16 0
-1 -16 0
-14 16 17 0
14 -17 0
-16 -17 0
-15 -1 18 0
15 -18 0
1 -18 0
17 18 19 0
-17 -19 0
-18 -19 0
-1 -2 20 0
1 -20 0
2 -20 0
20 3 21 0
-20 -21 0
-3 -21 0
21 22 23 0
-21 -23 0
-22 -23 0
-21 -22 24 0
21 -24 0
22 -24 0
23 24 25 0
-23 -25 0
-24 -25 0
19 -25 26 0
-19 -26 0
25 -26 0
26 24 27 0
-26 -27 0
-24 -27 0
3 -4 28 0
-3 -28 0
4 -28 0
28 5 29 0
-28 -29 0
-5 -29 0
29 30 31 0
-29 -31 0
-30 -31 0
-29 -30 32 0
29 -32 0
30 -32 0
31 32 33 0
-31 -33 0
-32 -33 0
27 -33 34 0
-27 -34 0
33 -34 0
34 32 35 0
-34 -35 0
-32 -35 0
11 -35 36 0
-11 -36 0
35 -36 0
9 10 37 0
-9 -37 0
-10 -37 0
36 37 38 0
-36 -38 0
-37 -38 0
8 -39 40 0
-8 -40 0
39 -40 0
-8 39 41 0
8 -41 0
-39 -41 0
40 41 42 0
-40 -42 0
-41 -42 0
42 43 44 0
-42 -44 0
-43 -44 0
-42 -43 45 0
42 -45 0
43 -45 0
44 45 46 0
-44 -46 0
-45 -46 0
38 46 47 0
-38 -47 0
-46 -47 0
-46 37 48 0
46 -48 0
-37 -48 0
47 48 49 0
-47 -49 0
-48 -49 0
12 -13 50 0
-12 -50 0
13 -50 0
16 18 51 0
-16 -51 0
-18 -51 0
50 51 52 0
-50 -52 0
-51 -52 0
-52 26 53 0
52 -53 0
-26 -53 0
-27 33 54 0
27 -54 0
-33 -54 0
54 34 55 0
-54 -55 0
-34 -55 0
-53 55 56 0
53 -56 0
-55 -56 0
18 25 57 0
-18 -57 0
-25 -57 0
57 14 58 0
-57 -58 0
-14 -58 0
-56 -58 59 0
56 -59 0
58 -59 0
41 -60 61 0
-41 -61 0
60 -61 0
-41 60 62 0
41 -62 0
-60 -62 0
61 62 63 0
-61 -63 0
-62 -63 0
63 -64 65 0
-63 -65 0
64 -65 0
-63 64 66 0
63 -66 0
-64 -66 0
65 66 67 0
-65 -67 0
-66 -67 0
67 45 68 0
-67 -68 0
-45 -68 0
-67 -45 69 0
67 -69 0
45 -69 0
68 69 70 0
-68 -70 0
-69 -70 0
-59 70 71 0
59 -71 0
-70 -71 0
61 -64 72 0
-61 -72 0
64 -72 0
72 62 73 0
-72 -73 0
-62 -73 0
-74 75 76 0
74 -76 0
-75 -76 0
74 -75 77 0
-74 -77 0
75 -77 0
76 77 78 0
-76 -78 0
-77 -78 0
-73 78 79 0
73 -79 0
-78 -79 0
73 -78 80 0
-73 -80 0
78 -80 0
79 80 81 0
-79 -81 0
-80 -81 0
37 11 82 0
-37 -82 0
-11 -82 0
82 35 83 0
-82 -83 0
-35 -83 0
81 83 84 0
-81 -84 0
-83 -84 0
-71 -84 85 0
71 -85 0
84 -85 0
-49 -85 86 0
49 -86 0
85 -86 0
86 0
